; benchmark generated from python API
(set-info :status unknown)
(declare-datatypes ((RealState 0)) (((RMk1 (rval1 Real)) (RMk2 (rval2 Real)))))
 (declare-fun x1 () Real)
(assert
 (exists ((?y1_st RealState) (val!235 Real) )(let (($x5417 (forall ((?y2 Real) )(! (forall ((?y3 Real) )(! (forall ((?y4 Real) )(! (let ((?x2035 (+ (+ (* (- 67.0) ?y3) (* (- 34.0) ?y2)) (* (- 78.0) x1))))
 (let (($x8803 (not (= ?x2035 0.0))))
 (let (($x7219 (< (+ (+ (* 97.0 ?y3) (* 88.0 ?y2)) (* (- 44.0) (rval2 ?y1_st))) 61.0)))
 (let ((?x2021 (* (- 55.0) x1)))
 (let ((?x7508 (+ (* (- 9.0) ?y4) (* (- 9.0) ?y3))))
 (let ((?x2736 (- 64.0)))
 (let ((?x2713 (* ?x2736 x1)))
 (let ((?x9557 (+ (+ (* (- 60.0) ?y4) (* (- 21.0) ?y3)) (* 98.0 ?y2))))
 (let (($x3168 (or (not (= (+ (+ ?x9557 (* 46.0 (rval2 ?y1_st))) ?x2713) 96.0)) (<= (+ (+ ?x7508 (* (- 19.0) (rval2 ?y1_st))) ?x2021) 11.0))))
 (let (($x7505 (<= (+ (+ (* 20.0 ?y4) (* 32.0 ?y2)) (* 54.0 x1)) 36.0)))
 (let ((?x2225 (- 13.0)))
 (let ((?x5717 (* (- 6.0) x1)))
 (let ((?x8254 (* 81.0 ?y4)))
 (let ((?x10306 (+ ?x8254 (* (- 35.0) ?y3))))
 (let ((?x9182 (- 78.0)))
 (let ((?x2520 (* 57.0 x1)))
 (let ((?x7055 (rval2 ?y1_st)))
 (let ((?x4072 (* 5.0 ?x7055)))
 (let ((?x13223 (* (- 29.0) ?y2)))
 (let ((?x2541 (+ (+ (* 15.0 ?y4) (* (- 82.0) ?y3)) ?x13223)))
 (let (($x1351 (or (<= (+ (+ ?x2541 ?x4072) ?x2520) ?x9182) (> (+ (+ ?x10306 (* (- 28.0) ?x7055)) ?x5717) ?x2225))))
 (let ((?x12135 (- 91.0)))
 (let ((?x3310 (* ?x12135 x1)))
 (let ((?x10947 (- 17.0)))
 (let ((?x11168 (* ?x10947 ?y2)))
 (let ((?x2539 (+ (* (- 5.0) ?y4) ?x11168)))
 (let ((?x8652 (* 98.0 ?x7055)))
 (let ((?x2688 (* 37.0 ?y2)))
 (let ((?x2530 (+ (+ (* 31.0 ?y4) (* (- 79.0) ?y3)) ?x2688)))
 (let ((?x10559 (* 29.0 x1)))
 (let ((?x10846 (+ (+ (+ (* 27.0 ?y4) (* 31.0 ?y3)) (* (- 72.0) ?x7055)) ?x10559)))
 (let (($x1586 (or (or (= ?x10846 0.0) (= (+ ?x2530 ?x8652) 2.0)) (<= (+ (+ ?x2539 (* (- 52.0) ?x7055)) ?x3310) 0.0))))
 (let (($x6359 (< (+ (+ (* 30.0 ?y4) (* (- 1.0) ?y3)) (* 9.0 ?x7055)) 0.0)))
 (let (($x8749 (<= (+ (+ (* 77.0 ?y4) (* 72.0 ?y2)) (* 95.0 x1)) 95.0)))
 (let (($x2451 (= (+ (+ (* 85.0 ?y4) (* ?x2736 ?y2)) (* (- 99.0) ?x7055)) 71.0)))
 (let ((?x6226 (* 34.0 x1)))
 (let (($x10544 (> (+ (+ (+ (* 69.0 ?y4) (* 76.0 ?y3)) (* 81.0 ?x7055)) ?x6226) 0.0)))
 (let ((?x11437 (- 32.0)))
 (let (($x2464 (< (+ (* (- 11.0) ?y3) (* 46.0 ?y2)) ?x11437)))
 (let ((?x5898 (- 11.0)))
 (let ((?x2390 (* 100.0 x1)))
 (let ((?x657 (* 44.0 ?x7055)))
 (let ((?x13084 (+ (+ (* 28.0 ?y4) (* (- 68.0) ?y3)) (* (- 4.0) ?y2))))
 (let ((?x7090 (- 54.0)))
 (let ((?x8988 (* 66.0 x1)))
 (let ((?x6574 (+ (+ (+ (* 3.0 ?y4) (* (- 100.0) ?y2)) (* (- 87.0) ?x7055)) ?x8988)))
 (let (($x7258 (and (or (not (= ?x6574 ?x7090)) (>= (+ (+ ?x13084 ?x657) ?x2390) ?x5898)) $x2464)))
 (let ((?x1333 (* 90.0 x1)))
 (let ((?x8429 (* 95.0 ?y2)))
 (let ((?x103 (+ (+ (* (- 27.0) ?y4) (* (- 31.0) ?y3)) ?x8429)))
 (let ((?x385 (- 15.0)))
 (let (($x7341 (= (+ (+ (* (- 94.0) ?y4) (* (- 92.0) ?x7055)) (* 1.0 x1)) ?x385)))
 (let ((?x5740 (- 19.0)))
 (let (($x3106 (= (+ (+ (* (- 4.0) ?y4) (* 6.0 ?y2)) (* 20.0 ?x7055)) ?x5740)))
 (let ((?x10671 (- 58.0)))
 (let ((?x5960 (- 20.0)))
 (let ((?x78 (* ?x5960 x1)))
 (let ((?x1628 (+ (+ (+ (* 96.0 ?y4) (* (- 97.0) ?y2)) (* (- 4.0) ?x7055)) ?x78)))
 (let (($x812 (or (and (= ?x1628 ?x10671) $x3106) (or (not $x7341) (<= (+ (+ ?x103 (* ?x385 ?x7055)) ?x1333) 62.0)))))
 (let ((?x7755 (* (- 48.0) x1)))
 (let (($x3181 (> ?x7755 98.0)))
 (let ((?x12205 (- 60.0)))
 (let ((?x2913 (* ?x12205 x1)))
 (let ((?x5611 (+ (+ (* (- 3.0) ?y4) (* (- 77.0) ?y3)) (* 85.0 ?y2))))
 (let (($x185 (or (or (and (> (+ (+ ?x5611 (* 23.0 ?x7055)) ?x2913) ?x12135) $x3181) $x812) (or $x7258 (or (and $x10544 $x2451) (and $x8749 $x6359))))))
 (or $x185 (or (or $x1586 $x1351) (and (and $x7505 $x3168) (or $x7219 $x8803))))))))))))))))))))))))))))))))))))))))))))))))))))))))))))))))))))) :qid k!18))
  :qid k!18))
  :qid k!18))
 ))
 (let (($x1052 (forall ((?y3 Real) )(! (let ((?x11868 (- 5.0)))
 (let ((?x6982 (* (- 50.0) x1)))
 (let (($x4763 (>= (+ (+ (* (- 90.0) ?y3) (* (- 80.0) (rval2 ?y1_st))) ?x6982) ?x11868)))
 (let ((?x10947 (- 17.0)))
 (let ((?x6931 (* ?x10947 x1)))
 (let (($x2767 (< (+ (+ (* (- 52.0) ?y3) (* (- 30.0) (rval2 ?y1_st))) ?x6931) 88.0)))
 (let (($x6691 (forall ((?y4 Real) )(! (< (+ (+ (* 75.0 ?y4) (* (- 12.0) ?y3)) (* (- 27.0) x1)) 67.0) :qid k!18))
 ))
 (let (($x7211 (exists ((?y4 Real) )(! (let ((?x13089 (* (- 7.0) x1)))
 (let (($x6278 (= (+ (+ (* (- 19.0) ?y4) (* (- 28.0) (rval2 ?y1_st))) ?x13089) 0.0)))
 (not $x6278))) :qid k!18))
 ))
 (let (($x732 (exists ((?y4 Real) )(! (let ((?x7768 (- 12.0)))
 (let ((?x2390 (* 100.0 x1)))
 (let ((?x2748 (* (- 77.0) ?y3)))
 (let ((?x10948 (+ (* (- 100.0) ?y4) ?x2748)))
 (= (+ (+ ?x10948 (* (- 17.0) (rval2 ?y1_st))) ?x2390) ?x7768))))) :qid k!18))
 ))
 (let (($x3208 (exists ((?y4 Real) )(! (let ((?x12144 (* (- 74.0) x1)))
 (let ((?x2644 (+ (+ (+ (* 22.0 ?y4) (* 2.0 ?y3)) (* 65.0 (rval2 ?y1_st))) ?x12144)))
 (let ((?x63 (- 76.0)))
 (let ((?x11027 (* 15.0 x1)))
 (let ((?x537 (+ (+ (+ (* 63.0 ?y4) (* (- 46.0) ?y3)) (* 33.0 (rval2 ?y1_st))) ?x11027)))
 (let ((?x7327 (* 19.0 ?y4)))
 (let (($x2658 (< ?x7327 (- 2.0))))
 (or (or $x2658 (not (= ?x537 ?x63))) (< ?x2644 0.0))))))))) :qid k!18))
 ))
 (let (($x8887 (forall ((?y4 Real) )(! (let (($x10685 (> (+ (* (- 70.0) ?y4) (* (- 78.0) ?y3)) 29.0)))
 (let ((?x3234 (* 86.0 x1)))
 (let ((?x7698 (+ (* (- 79.0) ?y4) (* 10.0 ?y3))))
 (let (($x6686 (or (not (= (+ (+ ?x7698 (* (- 54.0) (rval2 ?y1_st))) ?x3234) 0.0)) $x10685)))
 (let ((?x11319 (- 94.0)))
 (let (($x10178 (> (* 54.0 ?y3) ?x11319)))
 (let (($x7062 (<= (+ (+ (* (- 59.0) ?y4) (* 46.0 ?y3)) (* 38.0 (rval2 ?y1_st))) 57.0)))
 (let (($x11205 (<= (+ (+ (* 16.0 ?y4) (* 43.0 ?y3)) (* (- 86.0) (rval2 ?y1_st))) 0.0)))
 (let (($x2222 (and $x11205 (not (= (+ (* 4.0 (rval2 ?y1_st)) (* 68.0 x1)) 0.0)))))
 (let ((?x10557 (- 92.0)))
 (let ((?x6970 (- 68.0)))
 (let ((?x9898 (* ?x6970 x1)))
 (let ((?x2403 (+ (+ (+ (* 27.0 ?y4) (* 90.0 ?y3)) (* (- 16.0) (rval2 ?y1_st))) ?x9898)))
 (let ((?x11941 (- 44.0)))
 (let ((?x13216 (* ?x11941 x1)))
 (let ((?x10347 (+ (+ (+ (* 2.0 ?y4) (* (- 89.0) ?y3)) (* 1.0 (rval2 ?y1_st))) ?x13216)))
 (or (and (or (< ?x10347 4.0) (< ?x2403 ?x10557)) $x2222) (and (or $x7062 $x10178) $x6686)))))))))))))))))) :qid k!18))
 ))
 (and $x8887 (and $x3208 (or (and $x732 $x7211) (or $x6691 (or $x2767 $x4763)))))))))))))))) :qid k!18))
 ))
 (let (($x2793 (exists ((?y2 Real) )(! (exists ((?y3 Real) )(! (let (($x5901 (exists ((?y4 Real) )(! (let ((?x5703 (* (- 61.0) x1)))
 (let ((?x634 (- 41.0)))
 (let ((?x6380 (* ?x634 ?y2)))
 (let ((?x11598 (+ (* 58.0 ?y3) ?x6380)))
 (< (+ (+ ?x11598 (* (- 46.0) (rval2 ?y1_st))) ?x5703) 7.0))))) :qid k!18))
 ))
 (let (($x7239 (forall ((?y4 Real) )(! (let ((?x7616 (* (- 63.0) x1)))
 (let ((?x13223 (* (- 29.0) ?y2)))
 (let ((?x827 (+ (+ (* 84.0 ?y4) (* (- 54.0) ?y3)) ?x13223)))
 (let ((?x584 (- 35.0)))
 (let ((?x3973 (* ?x584 x1)))
 (let ((?x985 (+ (+ (+ (* (- 67.0) ?y4) (* 64.0 ?y3)) (* 32.0 (rval2 ?y1_st))) ?x3973)))
 (or (not (= ?x985 3.0)) (> (+ (+ ?x827 (* (- 71.0) (rval2 ?y1_st))) ?x7616) 0.0)))))))) :qid k!18))
 ))
 (let (($x3114 (exists ((?y4 Real) )(! (let ((?x634 (- 41.0)))
 (let ((?x6380 (* ?x634 ?y2)))
 (let ((?x11362 (+ (+ (* (- 90.0) ?y4) (* 76.0 ?y3)) ?x6380)))
 (let ((?x10384 (* 72.0 x1)))
 (let (($x8408 (<= (+ (+ (+ (* 28.0 ?y4) (* 33.0 ?y3)) (* 20.0 ?y2)) ?x10384) 26.0)))
 (let ((?x1231 (- 99.0)))
 (let ((?x5782 (* ?x1231 x1)))
 (let (($x1504 (not (= (+ (+ (* 56.0 ?y4) (* (- 27.0) (rval2 ?y1_st))) ?x5782) 93.0))))
 (and (and $x1504 $x8408) (<= (+ ?x11362 (* (- 57.0) (rval2 ?y1_st))) 0.0)))))))))) :qid k!18))
 ))
 (let (($x6643 (exists ((?y4 Real) )(! (let ((?x8876 (* 59.0 x1)))
 (let ((?x8687 (+ (+ (+ (* 64.0 ?y3) (* 76.0 ?y2)) (* 78.0 (rval2 ?y1_st))) ?x8876)))
 (let (($x7032 (<= (+ (+ (* (- 41.0) ?y3) (* 2.0 ?y2)) (* 1.0 (rval2 ?y1_st))) 53.0)))
 (let ((?x7055 (rval2 ?y1_st)))
 (let ((?x3346 (* 93.0 ?x7055)))
 (let ((?x9567 (* 80.0 ?y2)))
 (let ((?x8407 (+ (+ (* 77.0 ?y4) (* (- 13.0) ?y3)) ?x9567)))
 (let ((?x11816 (- 80.0)))
 (let (($x9418 (< (+ (+ (* (- 71.0) ?y4) (* 33.0 ?y2)) (* (- 76.0) ?x7055)) ?x11816)))
 (and (and $x9418 (< (+ ?x8407 ?x3346) 0.0)) (and $x7032 (= ?x8687 0.0)))))))))))) :qid k!18))
 ))
 (let (($x2274 (exists ((?y4 Real) )(! (let ((?x11437 (- 32.0)))
 (let ((?x3283 (* ?x11437 x1)))
 (let ((?x6308 (+ (+ (+ (* 83.0 ?y3) (* (- 59.0) ?y2)) (* 40.0 (rval2 ?y1_st))) ?x3283)))
 (let ((?x11319 (- 94.0)))
 (let ((?x7755 (* (- 48.0) x1)))
 (let ((?x7055 (rval2 ?y1_st)))
 (let ((?x4367 (* 40.0 ?x7055)))
 (let ((?x1436 (+ (* (- 19.0) ?y3) (* (- 67.0) ?y2))))
 (let ((?x12144 (* (- 74.0) x1)))
 (let ((?x2840 (+ (+ (+ (* (- 93.0) ?y3) (* 62.0 ?y2)) (* (- 20.0) ?x7055)) ?x12144)))
 (let ((?x7089 (- 62.0)))
 (let ((?x7282 (* (- 69.0) x1)))
 (let ((?x2124 (+ (+ (* (- 83.0) ?y4) (* 39.0 ?y3)) (* (- 95.0) ?y2))))
 (let (($x5605 (or (>= (+ (+ ?x2124 (* (- 5.0) ?x7055)) ?x7282) ?x7089) (= ?x2840 0.0))))
 (or $x5605 (and (= (+ (+ ?x1436 ?x4367) ?x7755) ?x11319) (<= ?x6308 44.0))))))))))))))))) :qid k!18))
 ))
 (or (and $x2274 $x6643) (and $x3114 (and $x7239 $x5901)))))))) :qid k!18))
  :qid k!18))
 ))
 (let (($x6502 (not (= ?y1_st (RMk1 val!235)))))
 (and $x6502 (and (or $x2793 $x1052) $x5417)))))))
 )
(check-sat)
